Water Network: 9
*******************************************************************************

-------------------------------- Solving with gurobi --------------------------
Gurobi 12.0.1: Set parameter LogToConsole to value 1
  tech:outlev = 1
Set parameter Presolve to value 1
  pre:solve = 1
Set parameter TimeLimit to value 3600
  lim:time = 3600
  alg:start = 1
Set parameter MIPGapAbs to value 1e-06
  mip:gapabs = 1e-06
Set parameter MIPGap to value 1e-09
  mip:gap = 1e-09
Set parameter BarConvTol to value 1e-09
  bar:convtol = 1e-09
  sol:chk:feastol = 1e-05
  sol:chk:feastolrel = 0
Set parameter NumericFocus to value 1
  alg:numericfocus = 1
Set parameter MIPGap to value 1e-09
  mip:gap = 1e-09
  tech:optionfile = gurobiOpt.prm

AMPL MP initial flat model has 500 variables (0 integer, 0 binary);
Objectives: 1 linear; 
Constraints:  94 linear; 232 quadratic;
Algebraic expressions:  58 div; 116 powconstexp;

AMPL MP final model has 906 variables (0 integer, 0 binary);
Objectives: 1 linear; 
Constraints:  152 linear; 232 quadratic;
Algebraic expressions:  58 div; 116 powconstexp;


Set parameter InfUnbdInfo to value 1
Gurobi Optimizer version 12.0.1 build v12.0.1rc0 (linux64 - "Debian GNU/Linux 12 (bookworm)")

CPU model: AMD Ryzen Threadripper PRO 5975WX 32-Cores, instruction set [SSE2|AVX|AVX2]
Thread count: 32 physical cores, 64 logical processors, using up to 32 threads

Non-default parameters:
TimeLimit  3600
MIPGap  1e-09
MIPGapAbs  1e-06
BarConvTol  1e-09
InfUnbdInfo  1
NumericFocus  1
Presolve  1

Optimize a model with 152 rows, 906 columns and 694 nonzeros
Model fingerprint: 0xf5c41e7b
Model has 58 general nonlinear constraints (1102 nonlinear terms)
Variable types: 906 continuous, 0 integer (0 binary)
Coefficient statistics:
  Matrix range     [1e+00, 1e+00]
  Objective range  [7e+03, 1e+05]
  Bounds range     [1e-11, 2e+11]
  RHS range        [3e-04, 4e+02]
Warning: Model contains large bounds
Presolve model has 58 nlconstr
Added 1334 variables to disaggregate expressions.
Presolve removed 1 rows and 349 columns
Presolve time: 0.01s
Presolved: 4095 rows, 1892 columns, 9914 nonzeros
Presolved model has 580 bilinear constraint(s)
Presolved model has 174 nonlinear constraint(s)

Solving non-convex MINLP

Variable types: 1892 continuous, 0 integer (0 binary)

Root relaxation: objective 5.791638e+07, 1063 iterations, 0.11 seconds (0.01 work units)

    Nodes    |    Current Node    |     Objective Bounds      |     Work
 Expl Unexpl |  Obj  Depth IntInf | Incumbent    BestBd   Gap | It/Node Time

     0     0 5.7916e+07    0  187          - 5.7916e+07      -     -    1s
     0     0 5.7916e+07    0  219          - 5.7916e+07      -     -    1s
     0     0 5.7916e+07    0  226          - 5.7916e+07      -     -    2s
     0     2 5.7916e+07    0  226          - 5.7916e+07      -     -    7s
     3     8 5.7916e+07    2  136          - 5.7916e+07      -   433   10s
  1132  1166 5.8836e+07   21  240          - 5.7916e+07      -  83.0   15s
  3891  3573 5.7916e+07   56  191          - 5.7916e+07      -  79.3   20s
  7467  5914 5.8134e+07  105    0          - 5.7916e+07      -  74.8   27s
  7473  5918 6.0022e+07   12    0          - 5.7916e+07      -  74.7   30s
  7481  5924 5.8434e+07   69    0          - 5.7916e+07      -  74.8   38s
  7482  5925 5.8845e+07   56    0          - 5.7916e+07      -  74.8   43s
  7483  5928 5.7916e+07   21  178          - 5.7916e+07      -  75.1   48s
  7489  5938 5.7916e+07   23  208          - 5.7916e+07      -  75.1   50s
  7883  6373 5.7916e+07   31  191          - 5.7916e+07      -  75.2   55s
  9696  7675 5.7916e+07   52  212          - 5.7916e+07      -  83.0   62s
 10619  8565 5.7916e+07   63  207          - 5.7916e+07      -  89.4   65s
 14554  8865 5.7916e+07   50  167          - 5.7916e+07      -  95.8   72s
 16175  9245 5.7916e+07   57  174          - 5.7916e+07      -  97.1   76s
 17867  9330 5.7916e+07   72  167          - 5.7916e+07      -   101   80s
 20821 10562 5.8219e+07   96  189          - 5.7916e+07      -   102   87s
 22951 11081 5.7916e+07   56  182          - 5.7916e+07      -   100   90s
 27492 13061 6.1589e+07   91  190          - 5.7916e+07      -  95.0   97s
 29942 14452 6.1589e+07  102  191          - 5.7916e+07      -  91.5  101s
 33338 16265 5.7916e+07   79  188          - 5.7916e+07      -  89.3  108s
 35442 17393 infeasible   87               - 5.7916e+07      -  88.0  111s
 37528 18674 5.8148e+07   68  172          - 5.7916e+07      -  86.7  116s
 39819 19952 infeasible   79               - 5.7916e+07      -  85.1  120s
 44411 22964 infeasible  106               - 5.7916e+07      -  82.2  128s
 47285 24991 infeasible  119               - 5.7916e+07      -  79.6  132s
 50342 26487 5.7916e+07   56  172          - 5.7916e+07      -  76.7  135s
 52690 28683 5.7916e+07   72  191          - 5.7916e+07      -  74.6  140s
 55848 31010 5.7916e+07   85  168          - 5.7916e+07      -  72.3  145s
 59009 33289 infeasible  104               - 5.7916e+07      -  70.3  151s
 62360 36146 5.7916e+07  118  175          - 5.7916e+07      -  68.4  157s
 66199 39627 5.8036e+07  145  179          - 5.7916e+07      -  66.1  164s
 67910 39627 5.7963e+07  833  158          - 5.7916e+07      -  65.2  165s
 70720 40869 infeasible  698               - 5.7916e+07      -  63.4  171s
 72626 44619 5.7966e+07 1124  173          - 5.7916e+07      -  62.4  178s
 77734 49070 5.7966e+07 1189  162          - 5.7916e+07      -  59.8  186s
 83139 53226 5.7966e+07 1241  153          - 5.7916e+07      -  57.3  193s
 88907 57940 5.7966e+07 1314  161          - 5.7916e+07      -  54.8  200s
 95815 62602 5.7966e+07 1462  161          - 5.7916e+07      -  52.0  208s
 102185 67424 5.7966e+07 1599  160          - 5.7916e+07      -  49.7  215s
 108309 72500 5.7966e+07 1746  160          - 5.7916e+07      -  47.7  223s
 114673 77614 5.7966e+07 1882  160          - 5.7916e+07      -  45.8  232s
 120971 82446 5.7966e+07 2014  160          - 5.7916e+07      -  44.0  241s
 127391 87265 5.7966e+07 2142  160          - 5.7916e+07      -  42.3  248s
 133564 88651 5.7966e+07 2267  160          - 5.7916e+07      -  40.9  254s
 135264 93639 5.7966e+07 2289  160          - 5.7916e+07      -  40.6  261s
 141124 98468 5.7966e+07 2420  160          - 5.7916e+07      -  39.4  269s
 146759 103244 5.7966e+07 2541  160          - 5.7916e+07      -  38.4  276s
 152335 107921 5.7966e+07 2660  160          - 5.7916e+07      -  37.4  283s
 157738 112528 5.7995e+07 2727  176          - 5.7916e+07      -  36.5  290s
 163063 117055 5.7965e+07 2810  168          - 5.7916e+07      -  35.7  298s
 168326 121530 5.7965e+07 2931  167          - 5.7916e+07      -  35.0  305s
 173703 126045 5.7965e+07 3044  167          - 5.7916e+07      -  34.2  312s
 179028 130416 5.8084e+07 3125  189          - 5.7916e+07      -  33.5  319s
 184205 134786 5.8084e+07 3132  175          - 5.7916e+07      -  32.9  325s
 189439 139103 infeasible 3141               - 5.7916e+07      -  32.3  333s
 194424 141872 5.8048e+07  448  158          - 5.7916e+07      -  31.7  340s
 197709 146192 5.8050e+07 2262  176          - 5.7916e+07      -  31.4  347s
 202691 150440 5.8050e+07 2273  174          - 5.7916e+07      -  30.9  354s
 207719 154645 5.8053e+07 2174  178          - 5.7916e+07      -  30.4  360s
 212734 158807 5.8050e+07 2229  174          - 5.7916e+07      -  30.0  366s
 217850 162895 5.8050e+07 1434  184          - 5.7916e+07      -  29.5  372s
 222652 166977 5.8058e+07 1441  182          - 5.7916e+07      -  29.1  378s
 227406 169233 5.8123e+07 1441  198          - 5.7916e+07      -  28.8  384s
 230004 173328 5.8058e+07 1444  202          - 5.7916e+07      -  28.6  390s
 234735 177371 5.8981e+07 1444  202          - 5.7916e+07      -  28.2  395s
 239432 181409 5.8093e+07 1445  200          - 5.7916e+07      -  27.9  401s
 244172 185555 infeasible 1970               - 5.7916e+07      -  27.6  407s
 248976 189679 5.8808e+07 1172  154          - 5.7916e+07      -  27.2  413s
 253694 193785 5.8808e+07 1192  170          - 5.7916e+07      -  26.9  418s
 258402 197843 infeasible 1217               - 5.7916e+07      -  26.6  423s
 263076 201927 6.0154e+07 1225  161          - 5.7916e+07      -  26.4  429s
 267760 203155 5.8808e+07 1233  156          - 5.7916e+07      -  26.1  434s
 269146 207193 5.8808e+07 1240  152          - 5.7916e+07      -  26.0  440s
 273802 211203 6.0158e+07 1244  171          - 5.7916e+07      -  25.8  445s
 278400 215266 5.8829e+07 1247  166          - 5.7916e+07      -  25.5  451s
 283055 219278 5.9132e+07 1254  165          - 5.7916e+07      -  25.3  456s
 287715 223279 5.7916e+07   53  169          - 5.7916e+07      -  25.0  462s
 292282 227268 5.7976e+07   63  179          - 5.7916e+07      -  24.8  468s
 296529 231281 5.7916e+07 1695  183          - 5.7916e+07      -  24.6  474s
 300620 235293 5.7916e+07 1719  182          - 5.7916e+07      -  24.5  479s
 304700 239286 5.7916e+07 1742  182          - 5.7916e+07      -  24.3  485s
 313164 247211 5.7916e+07 1780  182          - 5.7916e+07      -  24.0  495s
 317672 251130 5.7916e+07 1794  182          - 5.7916e+07      -  23.8  500s
 322149 252295 5.7916e+07 1808  182          - 5.7916e+07      -  23.6  505s
 323444 256226 5.7916e+07 1818  182          - 5.7916e+07      -  23.6  510s
 327935 260164 5.7916e+07 1833  182          - 5.7916e+07      -  23.4  515s
 332429 264077 5.7916e+07 1847  182          - 5.7916e+07      -  23.3  520s
 336898 267988 5.7916e+07 1861  182          - 5.7916e+07      -  23.1  526s
 341361 271867 5.7916e+07 1876  182          - 5.7916e+07      -  22.9  532s
 345790 275692 5.7916e+07 1890  182          - 5.7916e+07      -  22.8  537s
 350179 279512 5.7916e+07 1903  182          - 5.7916e+07      -  22.6  542s
 354621 283369 5.7916e+07 1916  182          - 5.7916e+07      -  22.5  547s
 359010 287201 5.7916e+07 1929  182          - 5.7916e+07      -  22.3  553s
 363388 291012 5.7916e+07 1942  182          - 5.7916e+07      -  22.2  559s
